circuit_heights=[3, 4, 5, 6, 7, 8, 9, 10, 11, 13, 3, 5, 6, 8, 11, 12, 15, 16, 38];
circuit_widths=[3, 3, 3, 3, 3, 3, 3, 3, 3, 3, 4, 4, 4, 4, 4, 4, 4, 4, 24];
max_height=190;
min_height=38;
n_circuits=19;
plate_width=38;
